NAME : mtspf.pid18313.gtsp.295279190.tour
COMMENT : Length = 295279190
COMMENT : Found by LKH [Keld Helsgaun] Sat Jan  4 23:04:35 2025
TYPE : TOUR
DIMENSION : 175
TOUR_SECTION
1
2
99
96
97
98
89
90
91
88
76
77
78
79
3
110
111
108
109
13
127
124
125
126
143
140
141
142
119
116
117
118
130
131
128
129
11
74
75
72
73
71
68
69
70
54
55
52
53
29
30
31
28
165
166
167
164
5
100
101
102
103
39
36
37
38
49
50
51
48
18
19
16
17
67
64
65
66
12
146
147
144
145
94
95
92
93
35
32
33
34
157
158
159
156
9
168
169
170
171
21
22
23
20
42
43
40
41
6
104
105
106
107
121
122
123
120
113
114
115
112
84
85
86
87
149
150
151
148
174
175
172
173
46
47
44
45
58
59
56
57
132
133
134
135
14
137
138
139
136
10
24
25
26
27
4
82
83
80
81
155
152
153
154
7
160
161
162
163
8
63
60
61
62
15
-1
EOF
